p cnf 3015 2744
c ind 1521 1522 1523 1524 1525 1526 1527 1528 1529 1530 0
c ind 1531 1532 1533 1534 1535 1536 1537 1538 1539 1540 0
c ind 1541 1542 1543 1544 1545 1547 1548 1549 1550 1551 0
c ind 1552 1553 1554 1555 1556 1557 1558 1559 1560 1561 0
c ind 1562 1563 1564 1565 1566 1567 1568 1569 1570 1571 0
c ind 1572 1573 1574 1575 1576 1577 1578 1579 1580 1581 0
c ind 1582 1583 1584 1585 1586 1587 1588 1589 1590 1591 0
c ind 1592 1593 1594 1595 1596 1597 1598 1599 1600 1601 0
c ind 1602 1603 1604 1605 1606 1607 1608 1609 1610 1611 0
c ind 1612 1613 1614 1615 1616 1617 1618 1619 1620 1621 0
c ind 1622 1623 1624 1625 1626 1274 1275 1276 1277 1278 0
c ind 1546 985 1017 1018 1019 1020 1009 1279 1010 1280 0
c ind 1011 1012 1013 1281 1255 1282 1256 1257 1258 1259 0
c ind 1260 1261 1262 1263 1264 1265 1266 1267 1268 1283 0
c ind 1269 1284 1270 1285 1271 1286 1272 1273 1627 1628 0
c ind 1629 1630 1631 1632 1633 1634 1014 1287 1635 1636 0
c ind 1637 1638 1639 1288 1289 1640 1641 1290 1642 1291 0
c ind 1643 1644 1645 1646 1647 1648 1649 1292 1388 1389 0
c ind 1390 1391 1392 1393 1293 1394 1294 1395 1396 1397 0
c ind 1398 1295 1296 1399 1400 1401 1402 1403 1404 1405 0
c ind 1406 1407 1408 1409 1410 1434 1435 1436 1297 1015 0
c ind 1437 1298 1438 1299 1300 1439 1440 1441 1442 1443 0
c ind 1444 1445 1446 1447 1448 1449 1301 1450 1451 1452 0
c ind 1453 1454 1455 1302 1456 1303 1135 1136 1304 1305 0
c ind 1137 1138 1139 1140 1141 1142 1143 1144 1306 1307 0
c ind 1145 1146 1147 1308 1148 1149 1150 1151 1152 1153 0
c ind 1154 1016 1155 1156 1157 1411 1412 1413 1414 1415 0
c ind 1309 1416 1417 1418 1310 1419 1311 1420 1421 1312 0
c ind 1313 1422 1423 1424 1425 1426 1427 1428 1429 1430 0
c ind 1431 1432 1433 1365 1366 1367 1368 1369 1370 1371 0
c ind 1372 1373 1374 1375 1376 1377 1378 1379 1380 1381 0
c ind 1382 1383 1384 1385 1386 1387 986 987 988 989 0
c ind 990 991 992 993 994 995 996 997 998 999 0
c ind 1000 1001 1002 1003 1004 1005 1006 1007 983 1008 0
c ind 1457 1458 1459 1460 1461 1462 1463 1464 1465 1466 0
c ind 1467 1468 1469 1470 1471 1472 1473 1474 1475 1476 0
c ind 1477 1478 1479 938 939 940 941 942 943 944 0
c ind 945 946 947 948 949 950 951 952 984 953 0
c ind 954 955 956 957 958 959 960 961 962 963 0
c ind 964 965 966 967 968 969 970 971 972 973 0
c ind 974 975 976 977 978 979 980 981 982 1480 0
c ind 1481 1482 1483 1484 1485 1486 1487 1488 1489 1490 0
c ind 1491 1492 1493 1494 1495 1496 1497 1498 1499 1500 0
c ind 1501 1502 1503 1504 1505 1506 1507 1508 1509 1510 0
c ind 1511 1512 1513 1514 1515 1516 1517 1518 1519 1520 0
788 -789 899 0
788 -789 816 0
-788 789 0
-816 -899 -788 0
789 -790 -804 -815 0
-789 790 0
-789 804 0
-789 815 0
790 791 -795 0
-790 -791 0
-790 795 0
-792 -1271 791 0
-794 -1271 791 0
-793 -1271 791 0
-791 1271 0
-791 792 793 794 0
792 -1630 1631 1632 0
-792 1630 0
-792 -1632 0
-792 -1631 0
793 1630 1633 1634 0
-793 -1630 0
-793 -1634 0
-793 -1633 0
794 -1272 1273 1627 0
-794 1272 0
-794 -1627 0
-794 -1273 0
795 796 800 -1388 -1439 0
-795 1439 0
-795 -800 0
-795 1388 0
-795 -796 0
797 1440 796 1441 1442 0
-796 -797 0
-796 -1442 0
-796 -1440 0
-796 -1441 0
797 798 -1445 0
797 798 799 -1446 0
-797 -798 0
-797 -799 1445 0
-797 1445 1446 0
798 1443 -1444 0
-798 -1443 0
-798 1444 0
799 1451 1452 0
799 1137 1138 1451 0
-799 -1451 0
-799 -1138 -1452 0
-799 -1137 -1452 0
801 1389 800 1390 1391 0
-800 -801 0
-800 -1391 0
-800 -1389 0
-800 -1390 0
801 802 -1394 0
801 802 803 -1395 0
-801 -802 0
-801 -803 1394 0
-801 1394 1395 0
802 1392 -1393 0
-802 -1392 0
-802 1393 0
803 1400 1401 0
803 1400 1408 1409 0
-803 -1400 0
-803 -1401 -1408 0
-803 -1401 -1409 0
804 805 808 -811 0
804 805 809 -811 0
-804 -805 0
-804 811 0
-808 -809 -804 0
-806 -807 805 -998 0
-806 -807 805 -999 0
-805 807 0
-805 806 0
-805 998 999 0
806 1001 1002 1003 1004 0
-806 -1004 0
-806 -1003 0
-806 -1001 0
-806 -1002 0
807 -995 -996 -997 1000 0
-807 997 0
-807 -1000 0
-807 995 0
-807 996 0
808 -1457 -1464 0
-808 1457 0
-808 1464 0
809 -810 -1465 1466 0
-809 1465 0
-809 -1466 0
-809 810 0
810 1468 -1469 -1470 1471 0
-810 -1468 0
-810 -1471 0
-810 1470 0
-810 1469 0
811 -812 1546 0
811 -812 814 0
-811 812 0
-814 -1546 -811 0
812 -813 -951 -980 0
-812 951 0
-812 980 0
-812 813 0
813 -1506 -1535 -1565 -1594 0
-813 1594 0
-813 1506 0
-813 1565 0
-813 1535 0
814 1369 1370 1371 0
-814 -1369 0
-814 -1371 0
-814 -1370 0
815 -983 -1016 0
815 984 -1015 0
815 984 -1016 0
815 -983 -1015 0
983 -984 -815 0
1015 1016 -815 0
816 -817 -846 -855 -880 0
-816 880 0
-816 817 0
-816 855 0
-816 846 0
817 835 -1250 0
817 818 835 0
-817 -835 0
-817 -818 1250 0
818 -819 -812 0
818 833 -812 0
812 -818 0
-818 819 -833 0
819 -820 -832 -1313 0
819 820 -821 -832 0
-819 832 0
-819 -820 1313 0
-819 820 821 0
820 946 -948 0
-820 -946 0
-820 948 0
821 -822 -1312 0
821 822 -823 0
-821 -822 1312 0
-821 822 823 0
822 1460 -1462 0
-822 -1460 0
-822 1462 0
823 824 805 831 0
823 824 805 -828 0
-805 -823 0
-823 -824 0
-823 828 -831 0
824 -826 -988 1546 0
824 825 988 1546 0
-824 -1546 0
-824 826 -988 0
-824 -825 988 0
825 -1309 -790 0
-825 1309 0
790 -825 0
826 -827 1310 0
825 826 827 0
-826 -827 -1310 0
-825 -826 827 0
827 1425 -1427 0
-827 -1425 0
-827 1427 0
826 828 -829 0
-826 -828 0
-828 829 0
829 830 -1369 0
829 830 -1370 0
829 830 -1371 0
-829 -830 0
-829 1369 1370 1371 0
830 1377 -1379 0
-830 -1377 0
-830 1379 0
831 1311 -1546 0
830 831 -1546 0
-831 1546 0
-830 -831 -1311 0
832 -1457 1464 0
-832 1457 0
-832 -1464 0
833 834 -1457 0
821 823 833 0
823 833 834 0
821 833 -1457 0
-823 -833 1457 0
-821 -833 -834 0
809 834 -1457 -1464 0
-834 1457 0
-834 1464 0
-809 -834 0
835 -836 1319 0
835 836 -1319 0
-835 -836 -1319 0
-835 836 1319 0
836 -837 -812 0
836 845 -812 0
812 -836 0
-836 837 -845 0
820 -832 837 -838 0
-820 -832 837 -1282 0
832 -837 0
820 -837 838 0
-820 -837 1282 0
-822 838 -1281 0
822 838 -839 0
-822 -838 1281 0
822 -838 839 0
839 840 805 844 0
839 840 805 -843 0
-805 -839 0
-839 -840 0
-839 843 -844 0
840 841 1280 -1546 0
830 840 841 -1546 0
-840 1546 0
-840 -841 0
-830 -840 -1280 0
-829 841 842 0
829 -841 0
-841 -842 0
-827 842 1279 0
790 827 842 0
827 842 984 0
-827 -842 -1279 0
827 -842 -790 -984 0
843 -984 -790 988 0
827 843 -790 -984 0
-843 984 0
790 -843 0
-827 -843 -988 0
827 844 1546 0
844 988 1546 0
844 1279 1546 0
-844 -1546 0
-827 -844 -988 -1279 0
838 845 -1457 0
834 839 845 0
838 839 845 0
834 845 -1457 0
-834 -838 -845 0
-839 -845 1457 0
846 -812 -847 0
846 -812 854 0
812 -846 0
847 -854 -846 0
820 -832 847 -848 0
-820 -832 847 -1286 0
832 -847 0
820 -847 848 0
-820 -847 1286 0
-822 848 -1285 0
822 848 -849 0
-822 -848 1285 0
822 -848 849 0
849 850 805 853 0
849 850 805 -852 0
-805 -849 0
-849 -850 0
-849 852 -853 0
850 -851 -988 1546 0
790 850 988 1546 0
-850 -1546 0
-850 851 -988 0
-850 988 -790 0
790 827 851 0
-827 851 1283 0
827 -851 -790 0
-827 -851 -1283 0
-829 851 852 0
829 -852 0
-851 -852 0
853 1284 -1546 0
830 853 -1546 0
-853 1546 0
-830 -853 -1284 0
848 854 -1457 0
834 849 854 0
848 849 854 0
834 854 -1457 0
-834 -848 -854 0
-849 -854 1457 0
855 856 870 -873 1233 0
855 -856 870 -873 -1233 0
-855 -870 0
-855 -856 1233 0
-855 873 0
-855 856 -1233 0
856 867 -812 0
856 857 -812 -860 0
812 -856 0
-856 -857 -867 0
-856 860 -867 0
857 -859 -988 1546 0
857 858 988 1546 0
-857 -1546 0
-857 859 -988 0
-857 -858 988 0
858 -1292 -790 0
-858 1292 0
790 -858 0
-827 859 1293 0
827 858 859 0
-827 -859 -1293 0
827 -858 -859 0
860 861 -862 0
-829 859 860 -862 0
-860 862 0
-859 -860 -861 0
829 -860 -861 0
861 1294 -1546 0
830 861 -1546 0
-861 1546 0
-830 -861 -1294 0
862 863 805 0
-805 -862 0
-862 -863 0
-822 863 -1457 0
863 864 -1457 0
-863 1457 0
822 -863 -864 0
864 865 866 0
810 864 865 -1457 0
-864 -865 0
-864 -866 1457 0
-810 -864 -866 0
-820 865 1464 0
-865 -1464 0
820 -865 0
866 -1464 -1465 1466 0
-866 1464 0
-866 1465 0
-866 -1466 0
820 867 868 0
832 867 868 0
867 868 1296 0
-867 -868 0
-820 -832 -867 -1296 0
-822 868 -869 -1295 0
-868 1295 0
822 -868 0
-868 869 0
-864 869 -1457 0
-869 1457 0
864 -869 0
870 -871 -1213 0
870 871 1213 0
-870 -871 1213 0
-870 871 -1213 0
871 -872 -804 0
804 -871 0
-871 872 0
872 -1623 -795 1625 0
-872 1623 0
-872 -1625 0
795 -872 0
873 874 -804 -877 0
873 -874 -804 -876 0
804 -873 0
-874 876 -873 0
874 877 -873 0
874 -989 1150 0
874 875 1150 0
874 -988 1150 0
-874 -1150 0
-874 -875 988 989 0
875 990 991 992 1546 0
-875 -1546 0
-875 -992 0
-875 -990 0
-875 -991 0
876 -1278 -1308 0
872 876 -1308 0
-876 1308 0
-872 -876 1278 0
877 879 -795 -1276 0
877 878 -795 879 0
795 -877 0
-877 -879 0
-877 -878 1276 0
878 -1623 1625 0
-878 1623 0
-878 -1625 0
-791 879 1623 0
879 1009 1307 1623 0
-879 -1623 0
-879 -1009 791 0
-879 -1307 791 0
880 -881 -889 -1242 0
880 881 -889 1242 0
-880 889 0
-880 881 -1242 0
-880 -881 1242 0
881 887 -812 0
881 882 -812 -885 0
812 -881 0
-881 -882 -887 0
-881 885 -887 0
882 -884 -988 1546 0
882 883 988 1546 0
-882 -1546 0
-882 884 -988 0
-882 -883 988 0
883 -1301 -790 0
-883 1301 0
790 -883 0
-827 884 1302 0
827 883 884 0
-827 -884 -1302 0
827 -883 -884 0
-862 885 886 0
-829 -862 884 885 0
862 -885 0
829 -885 -886 0
-884 -885 -886 0
886 1303 -1546 0
830 886 -1546 0
-886 1546 0
-830 -886 -1303 0
820 887 888 0
832 887 888 0
887 888 1305 0
-887 -888 0
-820 -832 -887 -1305 0
-822 -869 888 -1304 0
-888 1304 0
822 -888 0
869 -888 0
863 889 -812 890 0
889 890 -812 898 0
812 -889 0
-889 -890 0
-863 -898 -889 0
892 1457 890 0
822 891 890 892 0
-890 -892 0
-890 -891 -1457 0
-822 -890 -1457 0
-820 891 -1300 1464 0
-891 1300 0
-891 -1464 0
820 -891 0
892 893 805 897 0
892 893 805 -896 0
-805 -892 0
-892 -893 0
-892 896 -897 0
893 -895 -988 1546 0
893 894 988 1546 0
-893 -1546 0
-893 895 -988 0
-893 -894 988 0
894 -983 -790 0
-894 983 0
790 -894 0
-827 895 1297 0
827 894 895 0
-827 -895 -1297 0
827 -894 -895 0
-829 895 896 0
829 -896 0
-895 -896 0
897 1298 -1546 0
830 897 -1546 0
-897 1546 0
-830 -897 -1298 0
891 898 1299 0
864 891 898 0
-891 -898 0
-864 -898 -1299 0
899 -900 910 -1228 0
899 900 910 1228 0
-899 -910 0
-899 900 -1228 0
-899 -900 1228 0
900 -901 -812 0
900 909 -812 0
812 -900 0
-900 901 -909 0
820 -832 901 -902 0
-820 -832 901 -1291 0
832 -901 0
820 -901 902 0
-820 -901 1291 0
-822 902 -1290 0
822 902 -903 0
-822 -902 1290 0
822 -902 903 0
903 904 805 908 0
903 904 805 -907 0
-805 -903 0
-903 -904 0
-903 907 -908 0
904 -906 -988 1546 0
904 905 988 1546 0
-904 -1546 0
-904 906 -988 0
-904 -905 988 0
905 -1287 -790 0
-905 1287 0
790 -905 0
-827 906 1288 0
827 905 906 0
-827 -906 -1288 0
827 -905 -906 0
-829 906 907 0
829 -907 0
-906 -907 0
908 1289 -1546 0
830 908 -1546 0
-908 1546 0
-830 -908 -1289 0
902 909 -1457 0
834 903 909 0
902 903 909 0
834 909 -1457 0
-834 -902 -909 0
-903 -909 1457 0
818 910 -1250 0
-910 1250 0
-818 -910 0
912 -789 911 0
-818 2092 911 -789 0
818 -2092 911 -789 0
789 -911 0
818 -911 -912 2092 0
-818 -911 -912 -2092 0
900 912 913 -914 2070 0
-900 912 913 -914 -2070 0
-912 -913 0
-900 2070 -912 0
-912 914 0
900 -2070 -912 0
-836 2161 913 0
836 -2161 913 0
-836 -913 -2161 0
836 -913 2161 0
881 914 -846 -915 2084 0
-881 914 -846 -915 -2084 0
-914 915 0
881 -2084 -914 0
846 -914 0
-881 2084 -914 0
856 915 -916 -917 2075 0
-856 915 -916 -917 -2075 0
-915 917 0
856 -2075 -915 0
-915 916 0
-856 2075 -915 0
-871 916 2055 0
871 916 -2055 0
-871 -2055 -916 0
871 2055 -916 0
917 -889 -873 0
873 -917 0
889 -917 0
-900 918 -789 0
816 918 -789 0
-910 918 -789 0
789 -918 0
-816 900 910 -918 0
919 922 -789 0
846 919 -789 0
919 920 -789 0
789 -919 0
-919 -920 -846 -922 0
-855 920 -921 0
855 -920 0
-920 921 0
-817 910 921 0
817 -921 0
-910 -921 0
881 922 -889 0
-881 -922 0
889 -922 0
-856 923 -789 0
923 924 -789 0
921 923 -789 0
789 -923 0
856 -921 -923 -924 0
870 924 -925 0
-870 -924 0
-924 925 0
925 -917 -846 0
846 -925 0
917 -925 0
-818 926 -789 0
926 927 -789 0
789 -926 0
818 -926 -927 0
835 -924 927 0
-835 -927 0
924 -927 0
-836 928 -789 0
924 928 -789 0
789 -928 0
836 -924 -928 0
925 929 -789 0
871 929 -789 0
789 -929 0
-871 -929 -925 0
925 930 -789 0
789 -930 0
-925 -930 0
900 931 -789 0
816 931 -789 0
-910 931 -789 0
789 -931 0
-816 -900 910 -931 0
932 933 -789 0
846 932 -789 0
920 932 -789 0
789 -932 0
-920 -932 -846 -933 0
-881 933 -889 0
881 -933 0
889 -933 0
924 934 -789 0
856 934 -789 0
921 934 -789 0
789 -934 0
-856 -921 -924 -934 0
927 935 -789 0
818 935 -789 0
789 -935 0
-818 -927 -935 0
924 936 -789 0
836 936 -789 0
789 -936 0
-836 -924 -936 0
-871 937 -789 0
925 937 -789 0
789 -937 0
871 -937 -925 0
1 788 0
-1 -788 0
2 788 0
-2 -788 0
3 911 0
-3 -911 0
97 -918 0
-97 918 0
98 -919 0
-98 919 0
99 -923 0
-99 923 0
100 -926 0
-100 926 0
104 -928 0
-104 928 0
126 -929 0
-126 929 0
298 -930 0
-298 930 0
489 -931 0
-489 931 0
490 -932 0
-490 932 0
491 -934 0
-491 934 0
492 -935 0
-492 935 0
496 -936 0
-496 936 0
518 -937 0
-518 937 0
690 -930 0
-690 930 0
-97 -489 2716 0
97 -2716 0
489 -2716 0
97 -1228 0
-97 1228 0
-98 -490 2717 0
98 -2717 0
490 -2717 0
98 -1242 0
-98 1242 0
-99 -491 2718 0
99 -2718 0
491 -2718 0
99 -1233 0
-99 1233 0
-100 -492 2719 0
100 -2719 0
492 -2719 0
100 -1250 0
-100 1250 0
-104 -496 2723 0
104 -2723 0
496 -2723 0
104 -1319 0
-104 1319 0
-126 -518 2745 0
126 -2745 0
518 -2745 0
126 -1213 0
-126 1213 0
-298 -690 2917 0
298 -2917 0
690 -2917 0
298 -1089 0
-298 1089 0
-1 0
-2 0
3 0
4 0
5 0
6 0
7 0
8 0
9 0
10 0
11 0
12 0
13 0
14 0
15 0
16 0
17 0
18 0
19 0
20 0
21 0
22 0
23 0
24 0
25 0
26 0
27 0
28 0
29 0
30 0
31 0
32 0
33 0
34 0
35 0
36 0
37 0
38 0
39 0
40 0
41 0
42 0
43 0
44 0
45 0
46 0
47 0
48 0
49 0
50 0
51 0
52 0
53 0
54 0
55 0
56 0
57 0
58 0
59 0
60 0
61 0
62 0
63 0
64 0
65 0
66 0
67 0
68 0
69 0
70 0
71 0
72 0
73 0
74 0
75 0
76 0
77 0
78 0
79 0
80 0
81 0
82 0
83 0
84 0
85 0
86 0
87 0
88 0
89 0
90 0
91 0
92 0
93 0
94 0
95 0
96 0
101 0
102 0
103 0
105 0
106 0
107 0
108 0
109 0
110 0
111 0
112 0
113 0
114 0
115 0
116 0
117 0
118 0
119 0
120 0
121 0
122 0
123 0
124 0
125 0
127 0
128 0
129 0
130 0
131 0
132 0
133 0
134 0
135 0
136 0
137 0
138 0
139 0
140 0
141 0
142 0
143 0
144 0
145 0
146 0
147 0
148 0
149 0
150 0
151 0
152 0
153 0
154 0
155 0
156 0
157 0
158 0
159 0
160 0
161 0
162 0
163 0
164 0
165 0
166 0
167 0
168 0
169 0
170 0
171 0
172 0
173 0
174 0
175 0
176 0
177 0
178 0
179 0
180 0
181 0
182 0
183 0
184 0
185 0
186 0
187 0
188 0
189 0
190 0
191 0
192 0
193 0
194 0
195 0
196 0
197 0
198 0
199 0
200 0
201 0
202 0
203 0
204 0
205 0
206 0
207 0
208 0
209 0
210 0
211 0
212 0
213 0
214 0
215 0
216 0
217 0
218 0
219 0
220 0
221 0
222 0
223 0
224 0
225 0
226 0
227 0
228 0
229 0
230 0
231 0
232 0
233 0
234 0
235 0
236 0
237 0
238 0
239 0
240 0
241 0
242 0
243 0
-244 0
245 0
246 0
247 0
248 0
249 0
250 0
251 0
252 0
253 0
254 0
255 0
256 0
257 0
258 0
259 0
260 0
261 0
262 0
263 0
264 0
265 0
266 0
267 0
268 0
269 0
270 0
271 0
272 0
273 0
274 0
275 0
276 0
277 0
278 0
279 0
280 0
281 0
282 0
283 0
284 0
285 0
286 0
287 0
288 0
289 0
290 0
291 0
292 0
293 0
294 0
295 0
296 0
297 0
-298 0
299 0
300 0
301 0
302 0
303 0
304 0
305 0
306 0
-307 0
308 0
309 0
310 0
311 0
312 0
313 0
314 0
315 0
316 0
317 0
318 0
319 0
320 0
321 0
322 0
323 0
324 0
325 0
326 0
327 0
328 0
329 0
330 0
331 0
332 0
333 0
334 0
-335 0
336 0
337 0
338 0
339 0
340 0
341 0
342 0
343 0
344 0
345 0
346 0
347 0
348 0
349 0
350 0
351 0
352 0
353 0
354 0
355 0
356 0
357 0
358 0
359 0
360 0
361 0
362 0
363 0
364 0
365 0
366 0
367 0
368 0
369 0
370 0
371 0
372 0
373 0
374 0
375 0
376 0
377 0
378 0
379 0
380 0
381 0
382 0
383 0
384 0
385 0
386 0
387 0
388 0
389 0
390 0
391 0
392 0
393 0
394 0
395 0
-396 0
-397 0
-398 0
-399 0
-400 0
-401 0
-402 0
-403 0
-404 0
-405 0
-406 0
-407 0
-408 0
-409 0
-410 0
-411 0
-412 0
-413 0
-414 0
-415 0
-416 0
-417 0
-418 0
-419 0
-420 0
-421 0
-422 0
-423 0
-424 0
-425 0
-426 0
-427 0
-428 0
-429 0
-430 0
-431 0
-432 0
-433 0
-434 0
-435 0
-436 0
-437 0
-438 0
-439 0
-440 0
-441 0
-442 0
-443 0
-444 0
-445 0
-446 0
-447 0
-448 0
-449 0
-450 0
-451 0
-452 0
-453 0
-454 0
-455 0
-456 0
-457 0
-458 0
-459 0
-460 0
-461 0
-462 0
-463 0
-464 0
-465 0
-466 0
-467 0
-468 0
-469 0
-470 0
-471 0
-472 0
-473 0
-474 0
-475 0
-476 0
-477 0
-478 0
-479 0
-480 0
-481 0
-482 0
-483 0
-484 0
-485 0
-486 0
-487 0
-488 0
-493 0
-494 0
-495 0
-497 0
-498 0
-499 0
-500 0
-501 0
-502 0
-503 0
-504 0
-505 0
-506 0
-507 0
-508 0
-509 0
-510 0
-511 0
-512 0
-513 0
-514 0
-515 0
-516 0
-517 0
-519 0
-520 0
-521 0
-522 0
-523 0
-524 0
-525 0
-526 0
-527 0
-528 0
-529 0
-530 0
-531 0
-532 0
-533 0
-534 0
-535 0
-536 0
-537 0
-538 0
-539 0
-540 0
-541 0
-542 0
-543 0
-544 0
-545 0
-546 0
-547 0
-548 0
-549 0
-550 0
-551 0
-552 0
-553 0
-554 0
-555 0
-556 0
-557 0
-558 0
-559 0
-560 0
-561 0
-562 0
-563 0
-564 0
-565 0
-566 0
-567 0
-568 0
-569 0
-570 0
-571 0
-572 0
-573 0
-574 0
-575 0
-576 0
-577 0
-578 0
-579 0
-580 0
-581 0
-582 0
-583 0
-584 0
-585 0
-586 0
-587 0
-588 0
-589 0
-590 0
-591 0
-592 0
-593 0
-594 0
-595 0
-596 0
-597 0
-598 0
-599 0
-600 0
-601 0
-602 0
-603 0
-604 0
-605 0
-606 0
-607 0
-608 0
-609 0
-610 0
-611 0
-612 0
-613 0
-614 0
-615 0
-616 0
-617 0
-618 0
-619 0
-620 0
-621 0
-622 0
-623 0
-624 0
-625 0
-626 0
-627 0
-628 0
-629 0
-630 0
-631 0
-632 0
-633 0
-634 0
-635 0
636 0
-637 0
-638 0
-639 0
-640 0
-641 0
-642 0
-643 0
-644 0
-645 0
-646 0
-647 0
-648 0
-649 0
-650 0
-651 0
-652 0
-653 0
-654 0
-655 0
-656 0
-657 0
-658 0
-659 0
-660 0
-661 0
-662 0
-663 0
-664 0
-665 0
-666 0
-667 0
-668 0
-669 0
-670 0
-671 0
-672 0
-673 0
-674 0
-675 0
-676 0
-677 0
-678 0
-679 0
-680 0
-681 0
-682 0
-683 0
-684 0
-685 0
-686 0
-687 0
-688 0
-689 0
-690 0
-691 0
-692 0
-693 0
-694 0
-695 0
-696 0
-697 0
-698 0
699 0
-700 0
-701 0
-702 0
-703 0
-704 0
-705 0
-706 0
-707 0
-708 0
-709 0
-710 0
-711 0
-712 0
-713 0
-714 0
-715 0
-716 0
-717 0
-718 0
-719 0
-720 0
-721 0
-722 0
-723 0
-724 0
-725 0
-726 0
727 0
-728 0
-729 0
-730 0
-731 0
-732 0
-733 0
-734 0
-735 0
-736 0
-737 0
-738 0
-739 0
-740 0
-741 0
-742 0
-743 0
-744 0
-745 0
-746 0
-747 0
-748 0
-749 0
-750 0
-751 0
-752 0
-753 0
-754 0
-755 0
-756 0
-757 0
-758 0
-759 0
-760 0
-761 0
-762 0
-763 0
-764 0
-765 0
-766 0
-767 0
-768 0
-769 0
-770 0
-771 0
-772 0
-773 0
-774 0
-775 0
-776 0
-777 0
-778 0
-779 0
-780 0
-781 0
-782 0
-783 0
-784 0
-785 0
-786 0
-787 0
788 0
789 0
790 0
-791 0
795 0
-796 0
-800 0
804 0
-805 0
811 0
812 0
813 0
815 0
846 0
873 0
889 0
-890 0
-911 0
912 0
-913 0
914 0
915 0
916 0
917 0
925 0
-930 0
951 0
980 0
1021 0
1022 0
1023 0
1024 0
1025 0
1026 0
1027 0
1028 0
1029 0
1030 0
1031 0
1032 0
-1033 0
1034 0
1035 0
1036 0
1037 0
1038 0
1039 0
1040 0
1041 0
1042 0
1043 0
1044 0
1045 0
1046 0
1047 0
1048 0
1049 0
1050 0
1051 0
1052 0
1053 0
1054 0
1055 0
1056 0
1057 0
1058 0
1059 0
1060 0
-1061 0
1062 0
1063 0
1064 0
1065 0
1066 0
1067 0
1068 0
1069 0
1070 0
1071 0
1072 0
1073 0
1074 0
1075 0
1076 0
1077 0
1078 0
1079 0
1080 0
1081 0
1082 0
1083 0
1084 0
1085 0
1086 0
1087 0
1088 0
-1089 0
1090 0
1091 0
1092 0
1093 0
1094 0
1095 0
1096 0
1097 0
1098 0
1099 0
1100 0
1101 0
1102 0
1103 0
1104 0
1105 0
1106 0
1107 0
1108 0
1109 0
1110 0
1111 0
1112 0
1113 0
1114 0
1115 0
1116 0
1117 0
1118 0
1119 0
1120 0
1121 0
1122 0
1123 0
1124 0
1125 0
1126 0
1127 0
1128 0
1129 0
1130 0
1131 0
1132 0
1133 0
1134 0
1158 0
1159 0
1160 0
1161 0
1162 0
1163 0
1164 0
1165 0
1166 0
1167 0
1168 0
1169 0
1170 0
1171 0
1172 0
1173 0
1174 0
1175 0
1176 0
1177 0
1178 0
1179 0
1180 0
1181 0
1182 0
1183 0
1184 0
1185 0
1186 0
1187 0
1188 0
1189 0
1190 0
1191 0
1192 0
1193 0
1194 0
1195 0
1196 0
1197 0
1198 0
1199 0
1200 0
1201 0
1202 0
1203 0
1204 0
1205 0
1206 0
1207 0
1208 0
1209 0
1210 0
1211 0
1212 0
1214 0
1215 0
1216 0
1217 0
1218 0
1219 0
1220 0
1221 0
1222 0
1223 0
1224 0
1225 0
1226 0
1227 0
1229 0
1230 0
1231 0
1232 0
1234 0
1235 0
1236 0
1237 0
1238 0
1239 0
1240 0
1241 0
1243 0
1244 0
1245 0
1246 0
1247 0
1248 0
1249 0
1251 0
1252 0
1253 0
1254 0
-1314 0
1315 0
1316 0
1317 0
1318 0
1320 0
1321 0
1322 0
1323 0
1324 0
1325 0
1326 0
1327 0
1328 0
1329 0
1330 0
1331 0
1332 0
1333 0
1334 0
1335 0
1336 0
1337 0
1338 0
1339 0
1340 0
1341 0
1342 0
1343 0
1344 0
1345 0
1346 0
1347 0
1348 0
1349 0
1350 0
1351 0
1352 0
1353 0
1354 0
1355 0
1356 0
1357 0
1358 0
1359 0
1360 0
1361 0
1362 0
1363 0
1364 0
1388 0
1439 0
1506 0
1535 0
1565 0
1594 0
1650 0
1651 0
1652 0
1653 0
1654 0
1655 0
1656 0
1657 0
1658 0
1659 0
1660 0
1661 0
1662 0
1663 0
1664 0
1665 0
1666 0
1667 0
1668 0
1669 0
1670 0
1671 0
1672 0
1673 0
1674 0
1675 0
1676 0
1677 0
1678 0
1679 0
1680 0
1681 0
1682 0
1683 0
1684 0
1685 0
1686 0
1687 0
1688 0
1689 0
1690 0
1691 0
1692 0
1693 0
1694 0
1695 0
1696 0
1697 0
1698 0
1699 0
1700 0
1701 0
1702 0
1703 0
1704 0
1705 0
1706 0
1707 0
1708 0
1709 0
1710 0
1711 0
1712 0
1713 0
1714 0
1715 0
1716 0
1717 0
1718 0
1719 0
1720 0
1721 0
1722 0
1723 0
1724 0
1725 0
1726 0
1727 0
1728 0
1729 0
1730 0
1731 0
1732 0
1733 0
1734 0
1735 0
1736 0
1737 0
1738 0
1739 0
1740 0
1741 0
1742 0
1743 0
1744 0
1745 0
1746 0
1747 0
1748 0
1749 0
1750 0
1751 0
1752 0
1753 0
1754 0
1755 0
1756 0
1757 0
1758 0
1759 0
1760 0
1761 0
1762 0
1763 0
1764 0
1765 0
1766 0
1767 0
1768 0
1769 0
1770 0
1771 0
1772 0
1773 0
1774 0
1775 0
1776 0
1777 0
1778 0
1779 0
2622 0
-2623 0
-2624 0
-2625 0
-2626 0
-2627 0
-2628 0
-2629 0
-2630 0
-2631 0
-2632 0
-2633 0
-2634 0
-2635 0
-2636 0
-2637 0
-2638 0
-2639 0
-2640 0
-2641 0
-2642 0
-2643 0
-2644 0
-2645 0
-2646 0
-2647 0
-2648 0
-2649 0
-2650 0
-2651 0
-2652 0
-2653 0
-2654 0
-2655 0
-2656 0
-2657 0
-2658 0
-2659 0
-2660 0
-2661 0
-2662 0
-2663 0
-2664 0
-2665 0
-2666 0
-2667 0
-2668 0
-2669 0
-2670 0
-2671 0
-2672 0
-2673 0
-2674 0
-2675 0
-2676 0
-2677 0
-2678 0
-2679 0
-2680 0
-2681 0
-2682 0
-2683 0
-2684 0
-2685 0
-2686 0
-2687 0
-2688 0
-2689 0
-2690 0
-2691 0
-2692 0
-2693 0
-2694 0
-2695 0
-2696 0
-2697 0
-2698 0
-2699 0
-2700 0
-2701 0
-2702 0
-2703 0
-2704 0
-2705 0
-2706 0
-2707 0
-2708 0
-2709 0
-2710 0
-2711 0
-2712 0
-2713 0
-2714 0
-2715 0
-2720 0
-2721 0
-2722 0
-2724 0
-2725 0
-2726 0
-2727 0
-2728 0
-2729 0
-2730 0
-2731 0
-2732 0
-2733 0
-2734 0
-2735 0
-2736 0
-2737 0
-2738 0
-2739 0
-2740 0
-2741 0
-2742 0
-2743 0
-2744 0
-2746 0
-2747 0
-2748 0
-2749 0
-2750 0
-2751 0
-2752 0
-2753 0
-2754 0
-2755 0
-2756 0
-2757 0
-2758 0
-2759 0
-2760 0
-2761 0
-2762 0
-2763 0
-2764 0
-2765 0
-2766 0
-2767 0
-2768 0
-2769 0
-2770 0
-2771 0
-2772 0
-2773 0
-2774 0
-2775 0
-2776 0
-2777 0
-2778 0
-2779 0
-2780 0
-2781 0
-2782 0
-2783 0
-2784 0
-2785 0
-2786 0
-2787 0
-2788 0
-2789 0
-2790 0
-2791 0
-2792 0
-2793 0
-2794 0
-2795 0
-2796 0
-2797 0
-2798 0
-2799 0
-2800 0
-2801 0
-2802 0
-2803 0
-2804 0
-2805 0
-2806 0
-2807 0
-2808 0
-2809 0
-2810 0
-2811 0
-2812 0
-2813 0
-2814 0
-2815 0
-2816 0
-2817 0
-2818 0
-2819 0
-2820 0
-2821 0
-2822 0
-2823 0
-2824 0
-2825 0
-2826 0
-2827 0
-2828 0
-2829 0
-2830 0
-2831 0
-2832 0
-2833 0
-2834 0
-2835 0
-2836 0
-2837 0
-2838 0
-2839 0
-2840 0
-2841 0
-2842 0
-2843 0
-2844 0
-2845 0
-2846 0
-2847 0
-2848 0
-2849 0
-2850 0
-2851 0
-2852 0
-2853 0
-2854 0
-2855 0
-2856 0
-2857 0
-2858 0
-2859 0
-2860 0
-2861 0
-2862 0
-2863 0
-2864 0
-2865 0
-2866 0
-2867 0
-2868 0
-2869 0
-2870 0
-2871 0
-2872 0
-2873 0
-2874 0
-2875 0
-2876 0
-2877 0
-2878 0
-2879 0
-2880 0
-2881 0
-2882 0
-2883 0
-2884 0
-2885 0
-2886 0
-2887 0
-2888 0
-2889 0
-2890 0
-2891 0
-2892 0
-2893 0
-2894 0
-2895 0
-2896 0
-2897 0
-2898 0
-2899 0
-2900 0
-2901 0
-2902 0
-2903 0
-2904 0
-2905 0
-2906 0
-2907 0
-2908 0
-2909 0
-2910 0
-2911 0
-2912 0
-2913 0
-2914 0
-2915 0
-2916 0
-2917 0
-2918 0
-2919 0
-2920 0
-2921 0
-2922 0
-2923 0
-2924 0
-2925 0
-2926 0
-2927 0
-2928 0
-2929 0
-2930 0
-2931 0
-2932 0
-2933 0
-2934 0
-2935 0
-2936 0
-2937 0
-2938 0
-2939 0
-2940 0
-2941 0
-2942 0
-2943 0
-2944 0
-2945 0
-2946 0
-2947 0
-2948 0
-2949 0
-2950 0
-2951 0
-2952 0
-2953 0
-2954 0
-2955 0
-2956 0
-2957 0
-2958 0
-2959 0
-2960 0
-2961 0
-2962 0
-2963 0
-2964 0
-2965 0
-2966 0
-2967 0
-2968 0
-2969 0
-2970 0
-2971 0
-2972 0
-2973 0
-2974 0
-2975 0
-2976 0
-2977 0
-2978 0
-2979 0
-2980 0
-2981 0
-2982 0
-2983 0
-2984 0
-2985 0
-2986 0
-2987 0
-2988 0
-2989 0
-2990 0
-2991 0
-2992 0
-2993 0
-2994 0
-2995 0
-2996 0
-2997 0
-2998 0
-2999 0
-3000 0
-3001 0
-3002 0
-3003 0
-3004 0
-3005 0
-3006 0
-3007 0
-3008 0
-3009 0
-3010 0
-3011 0
-3012 0
-3013 0
-3014 0
-2363 0
-2364 0
-2365 0
-2366 0
-2367 0
-2368 0
-2369 0
-2370 0
-2371 0
-2372 0
-2373 0
-2374 0
-2375 0
-2376 0
-2377 0
-2378 0
-2379 0
-2380 0
-2381 0
-2382 0
-2383 0
-2384 0
-2385 0
-2386 0
-2387 0
-2389 0
-2390 0
-2391 0
-2392 0
-2393 0
-2394 0
-2395 0
-2396 0
-2397 0
-2398 0
-2399 0
-2400 0
-2401 0
-2402 0
-2403 0
-2404 0
-2405 0
-2406 0
-2407 0
-2408 0
-2409 0
-2410 0
-2411 0
-2412 0
-2413 0
-2414 0
-2415 0
-2416 0
-2417 0
-2418 0
-2419 0
-2420 0
-2421 0
-2422 0
-2423 0
-2424 0
-2425 0
-2426 0
-2427 0
-2428 0
-2429 0
-2430 0
-2431 0
-2432 0
-2433 0
-2434 0
-2435 0
-2436 0
-2437 0
-2438 0
-2439 0
-2440 0
-2441 0
-2442 0
-2443 0
-2444 0
-2445 0
-2446 0
-2447 0
-2448 0
-2449 0
-2450 0
-2451 0
-2452 0
-2453 0
-2454 0
-2455 0
-2456 0
-2457 0
-2458 0
-2459 0
-2460 0
-2461 0
-2462 0
-2463 0
-2464 0
-2465 0
-2466 0
-2467 0
-2468 0
-2116 0
-2117 0
-2118 0
-2119 0
-2120 0
-2388 0
-1827 0
-1859 0
-1860 0
-1861 0
-1862 0
-1851 0
-2121 0
-1852 0
-2122 0
-1853 0
-1854 0
-1855 0
-2123 0
-2097 0
-2124 0
-2098 0
-2099 0
-2100 0
-2101 0
-2102 0
-2103 0
-2104 0
-2105 0
-2106 0
-2107 0
-2108 0
-2109 0
-2110 0
-2125 0
-2111 0
-2126 0
-2112 0
-2127 0
-2113 0
-2128 0
-2114 0
-2115 0
-2469 0
-2470 0
-2471 0
-2472 0
-2473 0
-2474 0
-2475 0
-2476 0
-1856 0
-2129 0
-2477 0
-2478 0
-2479 0
-2480 0
-2481 0
-2130 0
-2131 0
-2482 0
-2483 0
-2132 0
-2484 0
-2133 0
-2485 0
-2486 0
-2487 0
-2488 0
-2489 0
-2490 0
-2491 0
-2134 0
-2230 0
-2231 0
-2232 0
-2233 0
-2234 0
-2235 0
-2135 0
-2236 0
-2136 0
-2237 0
-2238 0
-2239 0
-2240 0
-2137 0
-2138 0
-2241 0
-2242 0
-2243 0
-2244 0
-2245 0
-2246 0
-2247 0
-2248 0
-2249 0
-2250 0
-2251 0
-2252 0
-2276 0
-2277 0
-2278 0
-2139 0
-1857 0
-2279 0
-2140 0
-2280 0
-2141 0
-2142 0
-2281 0
-2282 0
-2283 0
-2284 0
-2285 0
-2286 0
-2287 0
-2288 0
-2289 0
-2290 0
-2291 0
-2143 0
-2292 0
-2293 0
-2294 0
-2295 0
-2296 0
-2297 0
-2144 0
-2298 0
-2145 0
-1977 0
-1978 0
-2146 0
-2147 0
-1979 0
-1980 0
-1981 0
-1982 0
-1983 0
-1984 0
-1985 0
-1986 0
-2148 0
-2149 0
-1987 0
-1988 0
-1989 0
-2150 0
-1990 0
-1991 0
-1992 0
-1993 0
-1994 0
-1995 0
-1996 0
-1858 0
-1997 0
-1998 0
-1999 0
-2253 0
-2254 0
-2255 0
-2256 0
-2257 0
-2151 0
-2258 0
-2259 0
-2260 0
-2152 0
-2261 0
-2153 0
-2262 0
-2263 0
-2154 0
-2155 0
-2264 0
-2265 0
-2266 0
-2267 0
-2268 0
-2269 0
-2270 0
-2271 0
-2272 0
-2273 0
-2274 0
-2275 0
-2207 0
-2208 0
-2209 0
-2210 0
-2211 0
-2212 0
-2213 0
-2214 0
-2215 0
-2216 0
-2217 0
-2218 0
-2219 0
-2220 0
-2221 0
-2222 0
-2223 0
-2224 0
-2225 0
-2226 0
-2227 0
-2228 0
-2229 0
-1828 0
-1829 0
-1830 0
-1831 0
-1832 0
-1833 0
-1834 0
-1835 0
-1836 0
-1837 0
-1838 0
-1839 0
-1840 0
-1841 0
-1842 0
-1843 0
-1844 0
-1845 0
-1846 0
-1847 0
-1848 0
-1849 0
-1825 0
-1850 0
-2299 0
-2300 0
-2301 0
-2302 0
-2303 0
-2304 0
-2305 0
-2306 0
-2307 0
-2308 0
-2309 0
-2310 0
-2311 0
-2312 0
-2313 0
-2314 0
-2315 0
-2316 0
-2317 0
-2318 0
-2319 0
-2320 0
-2321 0
-1780 0
-1781 0
-1782 0
-1783 0
-1784 0
-1785 0
-1786 0
-1787 0
-1788 0
-1789 0
-1790 0
-1791 0
-1792 0
-1793 0
-1794 0
-1826 0
-1795 0
-1796 0
-1797 0
-1798 0
-1799 0
-1800 0
-1801 0
-1802 0
-1803 0
-1804 0
-1805 0
-1806 0
-1807 0
-1808 0
-1809 0
-1810 0
-1811 0
-1812 0
-1813 0
-1814 0
-1815 0
-1816 0
-1817 0
-1818 0
-1819 0
-1820 0
-1821 0
-1822 0
-1823 0
-1824 0
-2322 0
-2323 0
-2324 0
-2325 0
-2326 0
-2327 0
-2328 0
-2329 0
-2330 0
-2331 0
-2332 0
-2333 0
-2334 0
-2335 0
-2336 0
-2337 0
-2338 0
-2339 0
-2340 0
-2341 0
-2342 0
-2343 0
-2344 0
-2345 0
-2346 0
-2347 0
-2348 0
-2349 0
-2350 0
-2351 0
-2352 0
-2353 0
-2354 0
-2355 0
-2356 0
-2357 0
-2358 0
-2359 0
-2360 0
-2361 0
-2362 0

